# Node Net
3520   1
4240   1
 70   1
6332   2
 14   2
 22   2
4081   3
 32   3
2081   3
4961   4
 79   4
6368   4
  3   5
 38   5
2640   5
6354   6
1680   6
6387   6
6385   7
161   7
6343   7
2960   8
960   8
6327   8
4721   9
1280   9
 76   9
6000  10
6357  10
5281  11
2720  11
5520  12
4401  12
6336  13
5040  13
 78  14
1601  14
 45  15
1520  15
6350  16
  9  16
